! Opt BP86 def2-SV(P)
%output 
xyzfile=True 
end 
%scf 
maxiter 250 
end
%output
Print[P_Hirshfeld] = 1
end
% maxcore
4000
%pal nprocs 8
end
*xyz 0 1
O   -0.00110000   0.36310000  -0.00000000 
H   -0.82500000  -0.18190000  -0.00000000 
H    0.82610000  -0.18120000   0.00000000 
*
